40
1 0 52
2 0 17
2 1 53
3 0 22
3 1 53
3 2 41
4 0 37
4 1 26
4 2 42
4 3 19
5 0 5
5 1 75
5 2 68
5 3 12
5 4 54
6 0 5
6 1 66
6 2 60
6 3 72
6 4 67
6 5 54
7 0 1
7 1 17
7 2 43
7 3 77
7 4 12
7 5 43
7 6 11
8 0 64
8 1 18
8 2 55
8 3 52
8 4 77
8 5 40
8 6 10
8 7 7
9 0 34
9 1 60
9 2 46
9 3 42
9 4 66
9 5 4
9 6 79
9 7 54
9 8 77
10 0 50
10 1 24
10 2 10
10 3 9
10 4 67
10 5 70
10 6 66
10 7 10
10 8 38
10 9 29
11 0 61
11 1 17
11 2 63
11 3 53
11 4 65
11 5 8
11 6 75
11 7 6
11 8 5
11 9 75
11 10 76
12 0 64
12 1 30
12 2 8
12 3 21
12 4 36
12 5 63
12 6 63
12 7 21
12 8 16
12 9 80
12 10 80
12 11 64
13 0 56
13 1 16
13 2 37
13 3 22
13 4 76
13 5 68
13 6 31
13 7 61
13 8 62
13 9 19
13 10 15
13 11 44
13 12 34
14 0 71
14 1 53
14 2 60
14 3 51
14 4 15
14 5 11
14 6 4
14 7 15
14 8 56
14 9 47
14 10 52
14 11 44
14 12 19
14 13 61
15 0 6
15 1 32
15 2 36
15 3 67
15 4 21
15 5 2
15 6 42
15 7 14
15 8 20
15 9 72
15 10 41
15 11 2
15 12 23
15 13 70
15 14 1
16 0 36
16 1 10
16 2 66
16 3 30
16 4 59
16 5 5
16 6 67
16 7 67
16 8 3
16 9 57
16 10 78
16 11 2
16 12 4
16 13 53
16 14 34
16 15 53
17 0 78
17 1 53
17 2 47
17 3 59
17 4 2
17 5 58
17 6 19
17 7 23
17 8 24
17 9 38
17 10 79
17 11 32
17 12 56
17 13 50
17 14 43
17 15 28
17 16 21
18 0 20
18 1 46
18 2 77
18 3 6
18 4 36
18 5 23
18 6 28
18 7 54
18 8 37
18 9 55
18 10 63
18 11 44
18 12 22
18 13 35
18 14 49
18 15 10
18 16 29
18 17 64
19 0 73
19 1 35
19 2 14
19 3 61
19 4 59
19 5 25
19 6 26
19 7 53
19 8 11
19 9 66
19 10 55
19 11 62
19 12 73
19 13 15
19 14 70
19 15 55
19 16 24
19 17 46
19 18 69
20 0 29
20 1 54
20 2 28
20 3 48
20 4 27
20 5 12
20 6 59
20 7 68
20 8 32
20 9 47
20 10 6
20 11 65
20 12 57
20 13 34
20 14 72
20 15 6
20 16 8
20 17 28
20 18 58
20 19 4
21 0 13
21 1 52
21 2 13
21 3 69
21 4 30
21 5 69
21 6 63
21 7 28
21 8 13
21 9 2
21 10 76
21 11 63
21 12 72
21 13 50
21 14 17
21 15 27
21 16 7
21 17 6
21 18 35
21 19 28
21 20 19
22 0 18
22 1 37
22 2 7
22 3 25
22 4 34
22 5 73
22 6 37
22 7 45
22 8 2
22 9 62
22 10 70
22 11 19
22 12 21
22 13 44
22 14 16
22 15 43
22 16 3
22 17 18
22 18 43
22 19 52
22 20 79
22 21 29
23 0 30
23 1 66
23 2 77
23 3 1
23 4 76
23 5 73
23 6 41
23 7 33
23 8 35
23 9 50
23 10 30
23 11 33
23 12 72
23 13 45
23 14 62
23 15 19
23 16 11
23 17 69
23 18 15
23 19 6
23 20 13
23 21 61
23 22 69
24 0 44
24 1 41
24 2 47
24 3 10
24 4 78
24 5 2
24 6 7
24 7 33
24 8 8
24 9 49
24 10 66
24 11 44
24 12 52
24 13 77
24 14 20
24 15 48
24 16 73
24 17 52
24 18 52
24 19 26
24 20 13
24 21 58
24 22 4
24 23 25
25 0 48
25 1 67
25 2 66
25 3 77
25 4 23
25 5 49
25 6 30
25 7 6
25 8 4
25 9 47
25 10 46
25 11 64
25 12 36
25 13 18
25 14 30
25 15 2
25 16 18
25 17 39
25 18 80
25 19 47
25 20 73
25 21 21
25 22 51
25 23 58
25 24 32
26 0 43
26 1 40
26 2 76
26 3 56
26 4 76
26 5 53
26 6 77
26 7 26
26 8 27
26 9 78
26 10 28
26 11 57
26 12 30
26 13 17
26 14 31
26 15 78
26 16 27
26 17 76
26 18 72
26 19 52
26 20 42
26 21 2
26 22 19
26 23 21
26 24 10
26 25 39
27 0 52
27 1 8
27 2 24
27 3 33
27 4 62
27 5 14
27 6 71
27 7 7
27 8 66
27 9 38
27 10 4
27 11 15
27 12 70
27 13 79
27 14 52
27 15 21
27 16 29
27 17 4
27 18 18
27 19 36
27 20 27
27 21 74
27 22 72
27 23 19
27 24 44
27 25 67
27 26 43
28 0 64
28 1 20
28 2 61
28 3 79
28 4 15
28 5 78
28 6 53
28 7 18
28 8 26
28 9 18
28 10 3
28 11 62
28 12 55
28 13 34
28 14 79
28 15 60
28 16 3
28 17 52
28 18 9
28 19 14
28 20 54
28 21 15
28 22 77
28 23 57
28 24 7
28 25 52
28 26 66
28 27 69
29 0 53
29 1 29
29 2 17
29 3 12
29 4 33
29 5 22
29 6 7
29 7 76
29 8 29
29 9 41
29 10 73
29 11 1
29 12 18
29 13 27
29 14 77
29 15 65
29 16 51
29 17 21
29 18 40
29 19 13
29 20 69
29 21 31
29 22 61
29 23 68
29 24 74
29 25 27
29 26 61
29 27 25
29 28 38
30 0 32
30 1 48
30 2 30
30 3 67
30 4 44
30 5 41
30 6 57
30 7 9
30 8 53
30 9 77
30 10 42
30 11 25
30 12 10
30 13 48
30 14 56
30 15 55
30 16 24
30 17 59
30 18 21
30 19 79
30 20 4
30 21 54
30 22 75
30 23 18
30 24 76
30 25 20
30 26 25
30 27 5
30 28 66
30 29 9
31 0 49
31 1 6
31 2 14
31 3 65
31 4 28
31 5 31
31 6 8
31 7 57
31 8 18
31 9 35
31 10 5
31 11 14
31 12 1
31 13 2
31 14 58
31 15 53
31 16 35
31 17 55
31 18 30
31 19 47
31 20 14
31 21 9
31 22 68
31 23 17
31 24 36
31 25 20
31 26 4
31 27 60
31 28 3
31 29 15
31 30 24
32 0 48
32 1 34
32 2 7
32 3 18
32 4 24
32 5 45
32 6 50
32 7 75
32 8 53
32 9 38
32 10 61
32 11 43
32 12 18
32 13 51
32 14 68
32 15 39
32 16 63
32 17 60
32 18 23
32 19 6
32 20 74
32 21 47
32 22 35
32 23 19
32 24 43
32 25 75
32 26 22
32 27 35
32 28 1
32 29 41
32 30 3
32 31 15
33 0 36
33 1 77
33 2 4
33 3 48
33 4 71
33 5 66
33 6 18
33 7 6
33 8 61
33 9 15
33 10 5
33 11 65
33 12 80
33 13 54
33 14 10
33 15 74
33 16 13
33 17 48
33 18 18
33 19 25
33 20 70
33 21 55
33 22 2
33 23 36
33 24 33
33 25 51
33 26 42
33 27 5
33 28 77
33 29 33
33 30 58
33 31 71
33 32 15
34 0 2
34 1 46
34 2 27
34 3 80
34 4 15
34 5 66
34 6 61
34 7 49
34 8 14
34 9 38
34 10 27
34 11 31
34 12 55
34 13 68
34 14 8
34 15 3
34 16 49
34 17 50
34 18 42
34 19 6
34 20 71
34 21 22
34 22 44
34 23 54
34 24 79
34 25 60
34 26 15
34 27 31
34 28 56
34 29 26
34 30 74
34 31 21
34 32 8
34 33 77
35 0 50
35 1 27
35 2 3
35 3 60
35 4 53
35 5 50
35 6 41
35 7 2
35 8 39
35 9 78
35 10 50
35 11 29
35 12 61
35 13 37
35 14 16
35 15 50
35 16 71
35 17 17
35 18 6
35 19 46
35 20 46
35 21 63
35 22 59
35 23 72
35 24 47
35 25 46
35 26 65
35 27 45
35 28 5
35 29 55
35 30 43
35 31 69
35 32 71
35 33 41
35 34 23
36 0 48
36 1 79
36 2 61
36 3 54
36 4 18
36 5 58
36 6 55
36 7 78
36 8 77
36 9 41
36 10 71
36 11 58
36 12 4
36 13 36
36 14 59
36 15 59
36 16 74
36 17 56
36 18 47
36 19 11
36 20 59
36 21 56
36 22 79
36 23 68
36 24 38
36 25 41
36 26 61
36 27 60
36 28 75
36 29 3
36 30 58
36 31 40
36 32 77
36 33 53
36 34 11
36 35 58
37 0 64
37 1 59
37 2 36
37 3 77
37 4 44
37 5 75
37 6 67
37 7 51
37 8 5
37 9 19
37 10 41
37 11 7
37 12 53
37 13 31
37 14 69
37 15 6
37 16 45
37 17 60
37 18 73
37 19 55
37 20 4
37 21 4
37 22 56
37 23 24
37 24 41
37 25 46
37 26 34
37 27 8
37 28 4
37 29 39
37 30 53
37 31 34
37 32 21
37 33 49
37 34 65
37 35 51
37 36 30
38 0 63
38 1 47
38 2 54
38 3 66
38 4 40
38 5 38
38 6 20
38 7 2
38 8 44
38 9 7
38 10 20
38 11 65
38 12 76
38 13 10
38 14 11
38 15 71
38 16 15
38 17 17
38 18 9
38 19 19
38 20 59
38 21 75
38 22 38
38 23 27
38 24 21
38 25 60
38 26 33
38 27 51
38 28 76
38 29 52
38 30 9
38 31 45
38 32 12
38 33 63
38 34 79
38 35 10
38 36 63
38 37 20
39 0 34
39 1 71
39 2 57
39 3 2
39 4 25
39 5 60
39 6 50
39 7 41
39 8 9
39 9 68
39 10 28
39 11 25
39 12 47
39 13 58
39 14 57
39 15 10
39 16 12
39 17 19
39 18 80
39 19 75
39 20 32
39 21 7
39 22 8
39 23 66
39 24 53
39 25 70
39 26 43
39 27 12
39 28 22
39 29 7
39 30 14
39 31 71
39 32 2
39 33 31
39 34 10
39 35 31
39 36 80
39 37 7
39 38 31
